Problem:    
Rows:       260
Columns:    89 (72 integer, 72 binary)
Non-zeros:  974
Status:     INTEGER OPTIMAL
Objective:  value = 31.494899 (MINimum)

   No.   Row name        Activity     Lower bound   Upper bound
------ ------------    ------------- ------------- -------------
     1 r.5                   31.4949             0               
     2 r.6                   23.8341      -990.499               
     3 r.7                   1031.49             0               
     4 r.8                  -982.212      -991.494               
     5 r.9                   1031.49             0               
     6 r.10                 -982.871      -990.635               
     7 r.11                  31.4949             0               
     8 r.12                  20.8938      -991.379               
     9 r.13                  1031.49             0               
    10 r.14                 -982.046      -999.175               
    11 r.15                  31.4949             0               
    12 r.16                  23.7382      -998.314               
    13 r.17                  1031.49             0               
    14 r.18                 -992.236      -998.751               
    15 r.19                  31.4949             0               
    16 r.20                  20.8938      -997.497               
    17 r.21                  31.4949             0               
    18 r.22                  24.9723      -995.438               
    19 r.23                  1031.49             0               
    20 r.24                 -975.028       -995.66               
    21 r.25                  1031.49             0               
    22 r.26                 -999.365      -999.365               
    23 r.27                  31.4949             0               
    24 r.28                  12.2045      -998.519               
    25 r.29                  1031.49             0               
    26 r.30                 -968.505      -989.399               
    27 r.31                  31.4949             0               
    28 r.32                  31.4949       -993.87               
    29 r.33                  31.4949             0               
    30 r.34                  31.4949      -985.109               
    31 r.35                  1031.49             0               
    32 r.36                 -968.505      -993.477               
    33 r.37                        1             1             = 
    34 r.38                        1             1             = 
    35 r.39                        1             1             = 
    36 r.40                        1             1             = 
    37 r.41                        1             1             = 
    38 r.42                        1             1             = 
    39 r.43                        1             1             = 
    40 r.44                        1             1             = 
    41 r.45                     1001             2               
    42 r.46                    -1001         -1001               
    43 r.47                  1996.24      -990.635               
    44 r.48                     1001             2               
    45 r.49                    -1001         -1001               
    46 r.50                  2000.26      -991.379               
    47 r.51                     1001             2               
    48 r.52                    -1001         -1001               
    49 r.53                  1997.06      -999.175               
    50 r.54                     1001             2               
    51 r.55                    -1001         -1001               
    52 r.56                  2003.11      -998.314               
    53 r.57                     1001             2               
    54 r.58                    -1001         -1001               
    55 r.59                  1986.87      -998.751               
    56 r.60                     1001             2               
    57 r.61                    -1001         -1001               
    58 r.62                  2000.26      -997.497               
    59 r.63                     1000             2               
    60 r.64                    -1000         -1001               
    61 r.65                  2004.08      -995.438               
    62 r.66                        2             2               
    63 r.67                       -2         -1001               
    64 r.68                  -995.66       -995.66               
    65 r.69                  17.3183      -990.499               
    66 r.70                 -988.728      -991.494               
    67 r.71                  17.3183      -990.499               
    68 r.72                 -988.728      -991.494               
    69 r.73                 -989.399      -989.399               
    70 r.74                  10.6011       -993.87               
    71 r.75                 -989.138      -989.399               
    72 r.76                  10.8624       -993.87               
    73 r.77                  10.6011      -985.109               
    74 r.78                 -989.399      -993.477               
    75 r.79                  10.8624      -985.109               
    76 r.80                 -989.138      -993.477               
    77 r.81                     1001             2               
    78 r.82                    -1001         -1001               
    79 r.83                  2006.71       9.50058               
    80 r.84                     1001             2               
    81 r.85                    -1001         -1001               
    82 r.86                  1996.89       8.50631               
    83 r.87                        2             2               
    84 r.88                       -2         -1001               
    85 r.89                 -999.175      -999.175               
    86 r.90                     1000             2               
    87 r.91                    -1000         -1001               
    88 r.92                  2002.84      -998.314               
    89 r.93                        2             2               
    90 r.94                       -2         -1001               
    91 r.95                  -9.3647      -998.751               
    92 r.96                     1000             2               
    93 r.97                    -1000         -1001               
    94 r.98                     2000      -997.497               
    95 r.99                     1001             2               
    96 r.100                   -1001         -1001               
    97 r.101                 2007.84      -995.438               
    98 r.102                    1001             2               
    99 r.103                   -1001         -1001               
   100 r.104                 2004.08       -995.66               
   101 r.105                -989.387      -990.635               
   102 r.106                 14.3781      -991.379               
   103 r.107                -989.387      -990.635               
   104 r.108                 14.3781      -991.379               
   105 r.109                -985.634      -989.399               
   106 r.110                 14.3659       -993.87               
   107 r.111                -989.399      -989.399               
   108 r.112                 10.6011       -993.87               
   109 r.113                    1001             2               
   110 r.114                   -1001         -1001               
   111 r.115                 2014.37      -985.109               
   112 r.116                    1001             2               
   113 r.117                   -1001         -1001               
   114 r.118                  2010.6      -993.477               
   115 r.119                    1001             2               
   116 r.120                   -1001         -1001               
   117 r.121                 2002.94       9.50058               
   118 r.122                    1001             2               
   119 r.123                   -1001         -1001               
   120 r.124                 1996.89       8.50631               
   121 r.125                       2             2               
   122 r.126                      -2         -1001               
   123 r.127                 996.235        9.3647               
   124 r.128                    1000             2               
   125 r.129                   -1000         -1001               
   126 r.130                    2000       8.62128               
   127 r.131                       2             2               
   128 r.132                      -2         -1001               
   129 r.133                -13.1295      -998.751               
   130 r.134                    1000             2               
   131 r.135                   -1000         -1001               
   132 r.136                    2000      -997.497               
   133 r.137                    1001             2               
   134 r.138                   -1001         -1001               
   135 r.139                 2004.08      -995.438               
   136 r.140                    1001             2               
   137 r.141                   -1001         -1001               
   138 r.142                 2004.08       -995.66               
   139 r.143                -988.562      -999.175               
   140 r.144                 17.2225      -998.314               
   141 r.145                -988.562      -999.175               
   142 r.146                 17.2225      -998.314               
   143 r.147                -989.399      -989.399               
   144 r.148                 10.6011       -993.87               
   145 r.149                -989.399      -989.399               
   146 r.150                 10.6011       -993.87               
   147 r.151                 10.6011      -985.109               
   148 r.152                -989.399      -993.477               
   149 r.153                 10.6011      -985.109               
   150 r.154                -989.399      -993.477               
   151 r.155                    1001             2               
   152 r.156                   -1001         -1001               
   153 r.157                 2016.07       9.50058               
   154 r.158                    1001             2               
   155 r.159                   -1001         -1001               
   156 r.160                 1996.89       8.50631               
   157 r.161                       2             2               
   158 r.162                      -2         -1001               
   159 r.163                  9.3647        9.3647               
   160 r.164                    1000             2               
   161 r.165                   -1000         -1001               
   162 r.166                    2000       8.62128               
   163 r.167                       2             2               
   164 r.168                      -2         -1001               
   165 r.169                 10.1893      0.824553               
   166 r.170                    1000             2               
   167 r.171                   -1000         -1001               
   168 r.172                 2002.84       1.68589               
   169 r.173                    1001             2               
   170 r.174                   -1001         -1001               
   171 r.175                 2017.21      -995.438               
   172 r.176                    1001             2               
   173 r.177                   -1001         -1001               
   174 r.178                 2004.08       -995.66               
   175 r.179                -998.751      -998.751               
   176 r.180                 14.3781      -997.497               
   177 r.181                -998.751      -998.751               
   178 r.182                 14.3781      -997.497               
   179 r.183                -976.269      -989.399               
   180 r.184                 23.7306       -993.87               
   181 r.185                -989.399      -989.399               
   182 r.186                 10.6011       -993.87               
   183 r.187                    1001             2               
   184 r.188                   -1001         -1001               
   185 r.189                 2023.73      -985.109               
   186 r.190                    1001             2               
   187 r.191                   -1001         -1001               
   188 r.192                  2010.6      -993.477               
   189 r.193                    1000             2               
   190 r.194                   -1000         -1001               
   191 r.195                 1998.86       9.50058               
   192 r.196                       2             2               
   193 r.197                      -2         -1001               
   194 r.198                 992.816       8.50631               
   195 r.199                    1001             2               
   196 r.200                   -1001         -1001               
   197 r.201                 1992.16        9.3647               
   198 r.202                    1001             2               
   199 r.203                   -1001         -1001               
   200 r.204                 1995.92       8.62128               
   201 r.205                    1001             2               
   202 r.206                   -1001         -1001               
   203 r.207                 1992.98      0.824553               
   204 r.208                    1001             2               
   205 r.209                   -1001         -1001               
   206 r.210                 1998.77       1.68589               
   207 r.211                    1001             2               
   208 r.212                   -1001         -1001               
   209 r.213                 1982.79       1.24853               
   210 r.214                    1001             2               
   211 r.215                   -1001         -1001               
   212 r.216                 1995.92       2.50349               
   213 r.217                 18.4566      -995.438               
   214 r.218                -981.543       -995.66               
   215 r.219                 18.4566      -995.438               
   216 r.220                -981.543       -995.66               
   217 r.221                    1001             2               
   218 r.222                   -1001         -1001               
   219 r.223                 2006.52      -989.399               
   220 r.224                    1001             2               
   221 r.225                   -1001         -1001               
   222 r.226                 2006.52       -993.87               
   223 r.227                  6.5226      -985.109               
   224 r.228                -993.477      -993.477               
   225 r.229                  6.5226      -985.109               
   226 r.230                -993.477      -993.477               
   227 r.231                -975.021      -989.399               
   228 r.232                 24.9792       -993.87               
   229 r.233                -975.021      -989.399               
   230 r.234                 24.9792       -993.87               
   231 r.235                    1001             2               
   232 r.236                   -1001         -1001               
   233 r.237                 1993.48         4.562               
   234 r.238                    1001             2               
   235 r.239                   -1001         -1001               
   236 r.240                 1993.48       4.33983               
   237 r.241                    1001             2               
   238 r.242                   -1001         -1001               
   239 r.243                    2000      -985.109               
   240 r.244                    1001             2               
   241 r.245                   -1001         -1001               
   242 r.246                    2000      -993.477               
   243 r.247                    1001             2               
   244 r.248                   -1001         -1001               
   245 r.249                 1985.63        9.3647               
   246 r.250                    1001             2               
   247 r.251                   -1001         -1001               
   248 r.252                  1989.4       8.62128               
   249 r.253                    1001             2               
   250 r.254                   -1001         -1001               
   251 r.255                 1976.27       1.24853               
   252 r.256                    1001             2               
   253 r.257                   -1001         -1001               
   254 r.258                  1989.4       2.50349               
   255 r.259                    1001             2               
   256 r.260                   -1001         -1001               
   257 r.261                    2000       10.6011               
   258 r.262                    1001             2               
   259 r.263                   -1001         -1001               
   260 r.264                    2000       6.13024               

   No. Column name       Activity     Lower bound   Upper bound
------ ------------    ------------- ------------- -------------
     1 tt                    31.4949             0               
     2 s_1_1        *              0             0             1 
     3 t_1_1                 10.6011             0               
     4 s_1_8        *              0             0             1 
     5 s_1_7        *              1             0             1 
     6 s_2_1        *              1             0             1 
     7 t_2_1                 10.8624             0               
     8 s_2_8        *              1             0             1 
     9 s_2_7        *              0             0             1 
    10 s_1_2        *              1             0             1 
    11 t_1_2                 14.3659             0               
    12 s_2_2        *              0             0             1 
    13 t_2_2                 10.6011             0               
    14 s_1_3        *              1             0             1 
    15 t_1_3                 10.6011             0               
    16 s_2_3        *              0             0             1 
    17 t_2_3                 10.6011             0               
    18 s_1_4        *              1             0             1 
    19 t_1_4                 23.7306             0               
    20 s_2_4        *              0             0             1 
    21 t_2_4                 10.6011             0               
    22 s_1_5        *              0             0             1 
    23 t_1_5                  6.5226             0               
    24 s_2_5        *              1             0             1 
    25 t_2_5                  6.5226             0               
    26 s_1_6        *              1             0             1 
    27 t_1_6                 24.9792             0               
    28 s_2_6        *              0             0             1 
    29 t_2_6                 24.9792             0               
    30 t_1_7                       0             0               
    31 t_2_7                       0             0               
    32 t_1_8                       0             0               
    33 t_2_8                       0             0               
    34 r_1_1_2      *              1             0             1 
    35 u_1_1_2      *              0             0             1 
    36 r_2_1_2      *              1             0             1 
    37 u_2_1_2      *              0             0             1 
    38 r_1_1_3      *              1             0             1 
    39 u_1_1_3      *              0             0             1 
    40 r_2_1_3      *              1             0             1 
    41 u_2_1_3      *              0             0             1 
    42 r_1_1_4      *              1             0             1 
    43 u_1_1_4      *              0             0             1 
    44 r_2_1_4      *              1             0             1 
    45 u_2_1_4      *              0             0             1 
    46 r_1_1_5      *              1             0             1 
    47 u_1_1_5      *              0             0             1 
    48 r_2_1_5      *              0             0             1 
    49 u_2_1_5      *              1             0             1 
    50 r_1_2_3      *              0             0             1 
    51 u_1_2_3      *              1             0             1 
    52 r_2_2_3      *              1             0             1 
    53 u_2_2_3      *              0             0             1 
    54 r_1_2_4      *              0             0             1 
    55 u_1_2_4      *              0             0             1 
    56 r_2_2_4      *              1             0             1 
    57 u_2_2_4      *              0             0             1 
    58 r_1_2_5      *              1             0             1 
    59 u_1_2_5      *              0             0             1 
    60 r_2_2_5      *              1             0             1 
    61 u_2_2_5      *              0             0             1 
    62 r_1_2_8      *              1             0             1 
    63 u_1_2_8      *              0             0             1 
    64 r_2_2_8      *              1             0             1 
    65 u_2_2_8      *              0             0             1 
    66 r_1_3_4      *              0             0             1 
    67 u_1_3_4      *              0             0             1 
    68 r_2_3_4      *              1             0             1 
    69 u_2_3_4      *              0             0             1 
    70 r_1_3_5      *              1             0             1 
    71 u_1_3_5      *              0             0             1 
    72 r_2_3_5      *              1             0             1 
    73 u_2_3_5      *              0             0             1 
    74 r_1_4_5      *              1             0             1 
    75 u_1_4_5      *              0             0             1 
    76 r_2_4_5      *              1             0             1 
    77 u_2_4_5      *              0             0             1 
    78 r_1_4_8      *              1             0             1 
    79 u_1_4_8      *              0             0             1 
    80 r_2_4_8      *              1             0             1 
    81 u_2_4_8      *              0             0             1 
    82 r_1_5_7      *              1             0             1 
    83 u_1_5_7      *              0             0             1 
    84 r_2_5_7      *              1             0             1 
    85 u_2_5_7      *              0             0             1 
    86 r_1_7_8      *              1             0             1 
    87 u_1_7_8      *              0             0             1 
    88 r_2_7_8      *              1             0             1 
    89 u_2_7_8      *              0             0             1 

Integer feasibility conditions:

KKT.PE: max.abs.err = 2.27e-13 on row 22
        max.rel.err = 1.09e-16 on row 22
        High quality

KKT.PB: max.abs.err = 1.14e-13 on row 22
        max.rel.err = 1.14e-16 on row 85
        High quality

End of output
